FourierSAT_Github_AIJ/benchmarks/MAXSAT_benchmarks/1/dimacs-mod/sanr400_0.5.clq.cnf
c File:  sanr400_0.5.clq
c
c SOURCE: Laura Sanchis (laura@cs.colgate.edu)
c
c DESCRIPTION:  Randomly generated graph of similar size to "san"
c               graphs, but with differenct clique characteristics
c
c REFERENCE: "Test Case Construction for the Vertex Cover Problem", 
c DIMACS Workshop on Computational Support for Discrete Mathematics, 
c March, 1992, with additional work in a to be published technical
c report.
c
c random graph 400 vertices 39984 edges
c 400 0.500000 1243
p cnf 40 798
1 2 0
-1 -2 0
1 4 0
-1 -4 0
1 5 0
-1 -5 0
1 6 0
-1 -6 0
1 7 0
-1 -7 0
1 8 0
-1 -8 0
1 9 0
-1 -9 0
1 10 0
-1 -10 0
1 14 0
-1 -14 0
1 15 0
-1 -15 0
1 17 0
-1 -17 0
1 18 0
-1 -18 0
1 19 0
-1 -19 0
1 20 0
-1 -20 0
1 24 0
-1 -24 0
1 26 0
-1 -26 0
1 30 0
-1 -30 0
1 31 0
-1 -31 0
1 32 0
-1 -32 0
1 35 0
-1 -35 0
1 36 0
-1 -36 0
1 38 0
-1 -38 0
1 39 0
-1 -39 0
1 40 0
-1 -40 0
2 6 0
-2 -6 0
2 7 0
-2 -7 0
2 11 0
-2 -11 0
2 12 0
-2 -12 0
2 14 0
-2 -14 0
2 20 0
-2 -20 0
2 22 0
-2 -22 0
2 23 0
-2 -23 0
2 24 0
-2 -24 0
2 25 0
-2 -25 0
2 27 0
-2 -27 0
2 28 0
-2 -28 0
2 29 0
-2 -29 0
2 31 0
-2 -31 0
2 32 0
-2 -32 0
2 34 0
-2 -34 0
2 38 0
-2 -38 0
2 39 0
-2 -39 0
3 4 0
-3 -4 0
3 5 0
-3 -5 0
3 7 0
-3 -7 0
3 8 0
-3 -8 0
3 9 0
-3 -9 0
3 10 0
-3 -10 0
3 13 0
-3 -13 0
3 15 0
-3 -15 0
3 16 0
-3 -16 0
3 18 0
-3 -18 0
3 20 0
-3 -20 0
3 21 0
-3 -21 0
3 22 0
-3 -22 0
3 24 0
-3 -24 0
3 25 0
-3 -25 0
3 26 0
-3 -26 0
3 30 0
-3 -30 0
3 31 0
-3 -31 0
3 34 0
-3 -34 0
3 36 0
-3 -36 0
3 37 0
-3 -37 0
4 5 0
-4 -5 0
4 6 0
-4 -6 0
4 7 0
-4 -7 0
4 8 0
-4 -8 0
4 10 0
-4 -10 0
4 12 0
-4 -12 0
4 13 0
-4 -13 0
4 15 0
-4 -15 0
4 17 0
-4 -17 0
4 22 0
-4 -22 0
4 24 0
-4 -24 0
4 26 0
-4 -26 0
4 27 0
-4 -27 0
4 28 0
-4 -28 0
4 29 0
-4 -29 0
4 31 0
-4 -31 0
4 32 0
-4 -32 0
4 33 0
-4 -33 0
4 34 0
-4 -34 0
4 35 0
-4 -35 0
4 36 0
-4 -36 0
4 40 0
-4 -40 0
5 7 0
-5 -7 0
5 8 0
-5 -8 0
5 10 0
-5 -10 0
5 12 0
-5 -12 0
5 13 0
-5 -13 0
5 14 0
-5 -14 0
5 15 0
-5 -15 0
5 19 0
-5 -19 0
5 24 0
-5 -24 0
5 26 0
-5 -26 0
5 27 0
-5 -27 0
5 31 0
-5 -31 0
5 33 0
-5 -33 0
5 37 0
-5 -37 0
5 40 0
-5 -40 0
6 8 0
-6 -8 0
6 9 0
-6 -9 0
6 10 0
-6 -10 0
6 12 0
-6 -12 0
6 13 0
-6 -13 0
6 17 0
-6 -17 0
6 18 0
-6 -18 0
6 19 0
-6 -19 0
6 20 0
-6 -20 0
6 21 0
-6 -21 0
6 22 0
-6 -22 0
6 25 0
-6 -25 0
6 27 0
-6 -27 0
6 29 0
-6 -29 0
6 30 0
-6 -30 0
6 31 0
-6 -31 0
6 32 0
-6 -32 0
6 35 0
-6 -35 0
6 36 0
-6 -36 0
6 38 0
-6 -38 0
7 8 0
-7 -8 0
7 12 0
-7 -12 0
7 18 0
-7 -18 0
7 19 0
-7 -19 0
7 20 0
-7 -20 0
7 24 0
-7 -24 0
7 30 0
-7 -30 0
7 32 0
-7 -32 0
7 33 0
-7 -33 0
7 35 0
-7 -35 0
7 37 0
-7 -37 0
7 40 0
-7 -40 0
8 9 0
-8 -9 0
8 11 0
-8 -11 0
8 12 0
-8 -12 0
8 13 0
-8 -13 0
8 14 0
-8 -14 0
8 16 0
-8 -16 0
8 17 0
-8 -17 0
8 19 0
-8 -19 0
8 20 0
-8 -20 0
8 21 0
-8 -21 0
8 27 0
-8 -27 0
8 28 0
-8 -28 0
8 29 0
-8 -29 0
8 30 0
-8 -30 0
8 31 0
-8 -31 0
8 34 0
-8 -34 0
8 38 0
-8 -38 0
9 11 0
-9 -11 0
9 12 0
-9 -12 0
9 14 0
-9 -14 0
9 16 0
-9 -16 0
9 18 0
-9 -18 0
9 20 0
-9 -20 0
9 21 0
-9 -21 0
9 23 0
-9 -23 0
9 26 0
-9 -26 0
9 27 0
-9 -27 0
9 30 0
-9 -30 0
9 31 0
-9 -31 0
9 34 0
-9 -34 0
9 35 0
-9 -35 0
9 37 0
-9 -37 0
9 38 0
-9 -38 0
9 39 0
-9 -39 0
9 40 0
-9 -40 0
10 12 0
-10 -12 0
10 15 0
-10 -15 0
10 19 0
-10 -19 0
10 20 0
-10 -20 0
10 21 0
-10 -21 0
10 22 0
-10 -22 0
10 23 0
-10 -23 0
10 24 0
-10 -24 0
10 25 0
-10 -25 0
10 26 0
-10 -26 0
10 28 0
-10 -28 0
10 29 0
-10 -29 0
10 32 0
-10 -32 0
10 34 0
-10 -34 0
10 38 0
-10 -38 0
10 39 0
-10 -39 0
10 40 0
-10 -40 0
11 13 0
-11 -13 0
11 14 0
-11 -14 0
11 17 0
-11 -17 0
11 19 0
-11 -19 0
11 22 0
-11 -22 0
11 26 0
-11 -26 0
11 29 0
-11 -29 0
11 32 0
-11 -32 0
11 34 0
-11 -34 0
11 35 0
-11 -35 0
11 36 0
-11 -36 0
11 37 0
-11 -37 0
11 38 0
-11 -38 0
12 13 0
-12 -13 0
12 16 0
-12 -16 0
12 17 0
-12 -17 0
12 18 0
-12 -18 0
12 21 0
-12 -21 0
12 22 0
-12 -22 0
12 23 0
-12 -23 0
12 24 0
-12 -24 0
12 25 0
-12 -25 0
12 28 0
-12 -28 0
12 29 0
-12 -29 0
12 33 0
-12 -33 0
12 35 0
-12 -35 0
12 39 0
-12 -39 0
12 40 0
-12 -40 0
13 15 0
-13 -15 0
13 17 0
-13 -17 0
13 18 0
-13 -18 0
13 19 0
-13 -19 0
13 23 0
-13 -23 0
13 24 0
-13 -24 0
13 26 0
-13 -26 0
13 27 0
-13 -27 0
13 28 0
-13 -28 0
13 31 0
-13 -31 0
13 32 0
-13 -32 0
13 34 0
-13 -34 0
13 35 0
-13 -35 0
13 37 0
-13 -37 0
14 15 0
-14 -15 0
14 16 0
-14 -16 0
14 19 0
-14 -19 0
14 21 0
-14 -21 0
14 22 0
-14 -22 0
14 24 0
-14 -24 0
14 25 0
-14 -25 0
14 26 0
-14 -26 0
14 28 0
-14 -28 0
14 32 0
-14 -32 0
14 33 0
-14 -33 0
14 37 0
-14 -37 0
14 39 0
-14 -39 0
15 17 0
-15 -17 0
15 18 0
-15 -18 0
15 19 0
-15 -19 0
15 22 0
-15 -22 0
15 25 0
-15 -25 0
15 26 0
-15 -26 0
15 27 0
-15 -27 0
15 29 0
-15 -29 0
15 32 0
-15 -32 0
15 33 0
-15 -33 0
15 34 0
-15 -34 0
15 36 0
-15 -36 0
16 19 0
-16 -19 0
16 24 0
-16 -24 0
16 27 0
-16 -27 0
16 28 0
-16 -28 0
16 31 0
-16 -31 0
16 32 0
-16 -32 0
16 33 0
-16 -33 0
16 34 0
-16 -34 0
16 35 0
-16 -35 0
16 36 0
-16 -36 0
16 37 0
-16 -37 0
16 39 0
-16 -39 0
17 18 0
-17 -18 0
17 20 0
-17 -20 0
17 22 0
-17 -22 0
17 23 0
-17 -23 0
17 31 0
-17 -31 0
17 32 0
-17 -32 0
17 33 0
-17 -33 0
17 34 0
-17 -34 0
17 36 0
-17 -36 0
17 40 0
-17 -40 0
18 20 0
-18 -20 0
18 21 0
-18 -21 0
18 22 0
-18 -22 0
18 24 0
-18 -24 0
18 28 0
-18 -28 0
18 29 0
-18 -29 0
18 30 0
-18 -30 0
18 31 0
-18 -31 0
18 32 0
-18 -32 0
18 34 0
-18 -34 0
18 37 0
-18 -37 0
18 40 0
-18 -40 0
19 20 0
-19 -20 0
19 21 0
-19 -21 0
19 22 0
-19 -22 0
19 28 0
-19 -28 0
19 30 0
-19 -30 0
19 33 0
-19 -33 0
19 35 0
-19 -35 0
19 36 0
-19 -36 0
19 37 0
-19 -37 0
19 39 0
-19 -39 0
20 22 0
-20 -22 0
20 26 0
-20 -26 0
20 28 0
-20 -28 0
20 30 0
-20 -30 0
20 32 0
-20 -32 0
20 35 0
-20 -35 0
20 36 0
-20 -36 0
20 40 0
-20 -40 0
21 23 0
-21 -23 0
21 24 0
-21 -24 0
21 26 0
-21 -26 0
21 28 0
-21 -28 0
21 29 0
-21 -29 0
21 30 0
-21 -30 0
21 31 0
-21 -31 0
21 32 0
-21 -32 0
21 33 0
-21 -33 0
21 34 0
-21 -34 0
21 36 0
-21 -36 0
21 37 0
-21 -37 0
21 38 0
-21 -38 0
22 24 0
-22 -24 0
22 25 0
-22 -25 0
22 27 0
-22 -27 0
22 33 0
-22 -33 0
22 35 0
-22 -35 0
22 36 0
-22 -36 0
22 37 0
-22 -37 0
22 39 0
-22 -39 0
22 40 0
-22 -40 0
23 28 0
-23 -28 0
23 32 0
-23 -32 0
23 35 0
-23 -35 0
23 36 0
-23 -36 0
24 26 0
-24 -26 0
24 29 0
-24 -29 0
24 32 0
-24 -32 0
24 33 0
-24 -33 0
24 34 0
-24 -34 0
24 35 0
-24 -35 0
24 38 0
-24 -38 0
24 39 0
-24 -39 0
25 27 0
-25 -27 0
25 28 0
-25 -28 0
25 31 0
-25 -31 0
25 35 0
-25 -35 0
25 36 0
-25 -36 0
25 37 0
-25 -37 0
25 38 0
-25 -38 0
25 39 0
-25 -39 0
26 28 0
-26 -28 0
26 32 0
-26 -32 0
26 33 0
-26 -33 0
26 34 0
-26 -34 0
26 38 0
-26 -38 0
26 40 0
-26 -40 0
27 29 0
-27 -29 0
27 32 0
-27 -32 0
27 33 0
-27 -33 0
27 35 0
-27 -35 0
27 38 0
-27 -38 0
27 39 0
-27 -39 0
28 30 0
-28 -30 0
28 31 0
-28 -31 0
28 32 0
-28 -32 0
28 33 0
-28 -33 0
28 34 0
-28 -34 0
28 35 0
-28 -35 0
28 36 0
-28 -36 0
28 37 0
-28 -37 0
28 39 0
-28 -39 0
28 40 0
-28 -40 0
29 30 0
-29 -30 0
29 32 0
-29 -32 0
29 35 0
-29 -35 0
29 37 0
-29 -37 0
29 38 0
-29 -38 0
29 39 0
-29 -39 0
30 31 0
-30 -31 0
30 34 0
-30 -34 0
31 33 0
-31 -33 0
31 34 0
-31 -34 0
31 39 0
-31 -39 0
32 33 0
-32 -33 0
32 38 0
-32 -38 0
32 39 0
-32 -39 0
32 40 0
-32 -40 0
33 36 0
-33 -36 0
33 38 0
-33 -38 0
33 39 0
-33 -39 0
33 40 0
-33 -40 0
34 35 0
-34 -35 0
34 36 0
-34 -36 0
34 39 0
-34 -39 0
35 37 0
-35 -37 0
35 38 0
-35 -38 0
35 40 0
-35 -40 0
36 38 0
-36 -38 0
36 39 0
-36 -39 0
36 40 0
-36 -40 0
37 38 0
-37 -38 0
37 40 0
-37 -40 0
38 39 0
-38 -39 0
39 40 0
-39 -40 0
