FourierSAT_Github_AIJ/res/fs_1core/sanr400_0.5.clq.cnf.txt
o 153
o 151
